dates = {'2021-10-12','2021-10-13','2021-10-14','2021-10-15','2021-10-16','2021-10-17','2021-10-18'};

daysOfWeek = [Tuesday,Wednesday,Thursday,Friday,Saturday,Sunday,Monday];

% For this week, how many people will be here.
numPeople = [30,30,26,29,29,29,29];

% Physical workers need 50 to 100 % more nutrients per day.
numPhysicalWorkers = [14.5,14.5,14.5,16.5,16.5,16.5,16.5];

% Males need +25% more nutrients per day.
numMen = [27,27,27,25,25,25,25];

% Num people who do not eat categories. contains = {none, meat, milk, gluten, egg, nut, seed, sugars}
numRefusals = [| 0,2,2,0,2,0,3,1 | 0,2,2,0,2,0,3,1 | 0,0,1,0,1,1,0,0 | 0,0,1,0,0,1,3,0 | 0,0,1,0,0,1,3,0 | 0,0,1,0,0,1,3,0 | 0,0,1,0,0,1,3,0 |];

